1 2
1 6
1 7
1 8
1 10
1 12
1 14
2 6
2 9
2 10
2 12
2 14
2 15
2 18
2 19
3 9
3 10
3 11
3 12
3 14
3 15
3 16
3 17
3 19
4 5
4 9
4 10
4 14
4 15
4 16
4 19
5 9
5 13
5 16
5 18
6 7
6 10
6 11
6 12
6 15
6 16
6 17
6 19
7 10
7 11
7 15
7 17
7 18
7 19
8 10
8 11
8 14
8 16
8 17
8 18
9 14
9 16
10 13
10 14
10 19
11 13
11 17
11 19
12 13
12 14
12 16
13 14
13 15
13 18
14 16
14 17
14 19
15 16
15 18
16 19
